--------------------------------------------------
s SATISFIABLE
benchmarks_SAT/logic-solvable//aiescargot.cnf : 36 ms.
--------------------------------------------------
s SATISFIABLE
benchmarks_SAT/logic-solvable//coly013.cnf : 21 ms.
--------------------------------------------------
s SATISFIABLE
benchmarks_SAT/logic-solvable//goldennugget.cnf : 42 ms.
--------------------------------------------------
s SATISFIABLE
benchmarks_SAT/logic-solvable//No_106.cnf : 17 ms.
--------------------------------------------------
s SATISFIABLE
benchmarks_SAT/logic-solvable//No_11.cnf : 27 ms.
--------------------------------------------------
s SATISFIABLE
benchmarks_SAT/logic-solvable//No_1.cnf : 33 ms.
--------------------------------------------------
s SATISFIABLE
benchmarks_SAT/logic-solvable//No_27.cnf : 36 ms.
--------------------------------------------------
s SATISFIABLE
benchmarks_SAT/logic-solvable//No_29.cnf : 29 ms.
--------------------------------------------------
s SATISFIABLE
benchmarks_SAT/logic-solvable//No_77.cnf : 28 ms.
--------------------------------------------------
s SATISFIABLE
benchmarks_SAT/logic-solvable//platinumblond.cnf : 43 ms.
--------------------------------------------------
s SATISFIABLE
benchmarks_SAT/logic-solvable//reddwarf.cnf : 35 ms.
--------------------------------------------------
s SATISFIABLE
benchmarks_SAT/logic-solvable//sabuncu10.cnf : 29 ms.
--------------------------------------------------
s SATISFIABLE
benchmarks_SAT/logic-solvable//sabuncu1.cnf : 26 ms.
--------------------------------------------------
s SATISFIABLE
benchmarks_SAT/logic-solvable//sabuncu2.cnf : 17 ms.
--------------------------------------------------
s SATISFIABLE
benchmarks_SAT/logic-solvable//sabuncu3.cnf : 26 ms.
--------------------------------------------------
s SATISFIABLE
benchmarks_SAT/logic-solvable//sabuncu4.cnf : 29 ms.
--------------------------------------------------
s SATISFIABLE
benchmarks_SAT/logic-solvable//sabuncu5.cnf : 25 ms.
--------------------------------------------------
s SATISFIABLE
benchmarks_SAT/logic-solvable//sabuncu6.cnf : 52 ms.
--------------------------------------------------
s SATISFIABLE
benchmarks_SAT/logic-solvable//sabuncu7.cnf : 27 ms.
--------------------------------------------------
s SATISFIABLE
benchmarks_SAT/logic-solvable//sabuncu8.cnf : 21 ms.
--------------------------------------------------
s SATISFIABLE
benchmarks_SAT/logic-solvable//sabuncu9.cnf : 26 ms.
--------------------------------------------------
s SATISFIABLE
benchmarks_SAT/logic-solvable//tarx0134.cnf : 36 ms.
